(set-info :source |
 Generated by Alive 0.1
 More info in N. P. Lopes, D. Menendez, S. Nagarakatte, J. Regehr.
 Provably Correct Peephole Optimizations with Alive. In PLDI'15.
|)

(set-info :status unknown)
(declare-fun C1 () (_ BitVec 32))
(declare-fun %X () (_ BitVec 32))
(declare-fun C2 () (_ BitVec 32))
(assert
 (let ((?x239796 (ite (= %X C2) (_ bv1 1) (_ bv0 1))))
 (let ((?x276073 (ite (= %X C1) (_ bv1 1) (_ bv0 1))))
 (let ((?x237060 (bvor ?x276073 ?x239796)))
 (let ((?x20485 (bvsub C2 (_ bv1 32))))
 (let (($x164797 (= C1 ?x20485)))
 (and $x164797 (and (distinct ?x237060 (ite (bvult (bvadd %X (bvneg C1)) (_ bv2 32)) (_ bv1 1) (_ bv0 1))) true))))))))
(check-sat)
